100
    1    15    15
    2     2     2
    3    14    14
    4    10    10
    5    24    24
    6    34    34
    7    45    45
    8    24    24
    9    48    48
   10    29    29
   11    37    37
   12     7     7
   13    29    29
   14    13    13
   15    43    43
   16    45    45
   17    11    11
   18    44    44
   19    28    28
   20    14    14
   21     5     5
   22     9     9
   23    33    33
   24     7     7
   25    16    16
   26     5     5
   27    34    34
   28    22    22
   29    28    28
   30    13    13
   31    28    28
   32    26    26
   33    25    25
   34    38    38
   35    40    40
   36    32    32
   37    39    39
   38    12    12
   39    30    30
   40    39    39
   41     3     3
   42    25    25
   43    23    23
   44    31    31
   45    26    26
   46    26    26
   47     4     4
   48     8     8
   49    40    40
   50    23    23
   51    16    16
   52    34    34
   53     8     8
   54    42    42
   55     5     5
   56    21    21
   57     3     3
   58     2     2
   59    45    45
   60     8     8
   61    43    43
   62    33    33
   63    13    13
   64    34    34
   65    17    17
   66    20    20
   67    13    13
   68    21    21
   69    48    48
   70     1     1
   71    13    13
   72    39    39
   73    24    24
   74     5     5
   75    48    48
   76     7     7
   77    50    50
   78    26    26
   79    34    34
   80    17    17
   81    23    23
   82    10    10
   83     7     7
   84    21    21
   85     6     6
   86    25    25
   87    45    45
   88    33    33
   89    35    35
   90    20    20
   91    44    44
   92    41    41
   93    13    13
   94     6     6
   95    29    29
   96    48    48
   97    45    45
   98    44    44
   99     2     2
  100    21    21
2011
